#########################################################
#                                                       #
# Filename: TIP4P2005_AVP.ff.lmp                        #
#                                                       #
# Author: Arjun Valiya Parambathu                       #
#                                                       #
# Include the script in larger file                     #
#                                                       #
# Forcefield for Water TIP4P-2005                       #
#                                                       #
#########################################################

# Masses
mass            1 15.9994 # O
mass            2 1.00794 # H

# Pair Style 
# args: otype htype btype atype qdist cutoff (cutoff2)
pair_style 	    lj/cut/tip4p/long 1 2 1 1 0.1546 13
pair_modify     tail yes

# Pair Coefficients
# Lennard-Jones: sigmaAB = (1/2)(sigmaAA + sigmaBB)
#                epsilonAB = (epsilonAA*epsilonBB)^0.5
# Syntax: pair_coeff atom_i atom_j epsilon sigma
pair_coeff      1 1     0.1852  3.1589      # O-O
pair_coeff      1 2     0.0     0.0	        # H-O
pair_coeff      2 2     0.0     0.0	        # H-H

# Setting Charges
set 		    type 1 charge -1.0484           # O Charge
set 		    type 2 charge  0.5242           # H Charge

# Bond Definitions
bond_style      harmonic
bond_coeff  	1 0.0 0.9572 		            # H2O bond (TIP4P-2005)

# Angle Definitions
angle_style     harmonic
angle_coeff     1 0.0 104.52                    # H2O angle (TIP4P-2005)

# 1-4 interactions at 0.5
special_bonds   lj/coul 0.0 0.0 0.5

# Fix rigid bonds using SHAKE
fix             RigidOHBonds all shake 1.0e-4 100 0 b 1 a 1

#Kspace 
kspace_style 	pppm/tip4p 1.0e-5
